; benchmark generated from python API
(set-info :status unknown)
(declare-fun R_E1_V6 () Bool)
(declare-fun W_S1_V6 () Bool)
(declare-fun R_E1_V4 () Bool)
(declare-fun W_S1_V4 () Bool)
(declare-fun W_S1_V3 () Bool)
(declare-fun W_S1_V1 () Bool)
(declare-fun R_S1_V6 () Bool)
(declare-fun R_S1_V4 () Bool)
(declare-fun R_S1_V5 () Bool)
(declare-fun R_S1_V2 () Bool)
(declare-fun R_S1_V3 () Bool)
(declare-fun R_S1_V1 () Bool)
(declare-fun R_E2_V1 () Bool)
(declare-fun R_E1_V2 () Bool)
(declare-fun R_E1_V5 () Bool)
(declare-fun DISJ_W_S1_R_S1 () Bool)
(declare-fun R_E2_V6 () Bool)
(declare-fun R_E2_V4 () Bool)
(declare-fun R_E2_V5 () Bool)
(declare-fun DISJ_W_S1_R_E2 () Bool)
(declare-fun W_S1_V5 () Bool)
(declare-fun W_S1_V2 () Bool)
(declare-fun R_E1_V3 () Bool)
(declare-fun R_E1_V1 () Bool)
(declare-fun R_E2_V3 () Bool)
(declare-fun DISJ_W_S1_R_E1 () Bool)
(assert
 (let (($x3377 (not (and W_S1_V6 R_E1_V6))))
 (let (($x1618 (not (and W_S1_V4 R_E1_V4))))
 (let (($x5163 (forall ((V2_0 Int) )(forall ((V5_0 Int) )(forall ((V4_0 Int) )(forall ((V6_0 Int) )(forall ((MW_S1_V1 Bool) )(forall ((MW_S1_V3 Bool) )(forall ((MW_S1_V2 Bool) )(forall ((MW_S1_V5 Bool) )(forall ((MW_S1_V4 Bool) )(forall ((MW_S1_V6 Bool) )(forall ((S1_V1_!7162 Int) )(forall ((S1_V1_!7168 Int) )(forall ((S1_V1_!7177 Int) )(forall ((S1_V1_!7184 Int) )(forall ((S1_V3_!7163 Int) )(forall ((S1_V3_!7169 Int) )(forall ((S1_V3_!7178 Int) )(forall ((S1_V3_!7185 Int) )(forall ((S1_V2_!7164 Int) )(forall ((S1_V2_!7170 Int) )(forall ((S1_V2_!7179 Int) )(forall ((S1_V2_!7186 Int) )(forall ((E1_!7159 Int) )(forall ((E1_!7174 Int) )(forall ((E1_!7176 Int) )(forall ((E1_!7183 Int) )(forall ((S1_V5_!7165 Int) )(forall ((S1_V5_!7171 Int) )(forall ((S1_V5_!7180 Int) )(forall ((S1_V5_!7187 Int) )(forall ((E2_!7160 Int) )(forall ((E2_!7161 Int) )(forall ((E2_!7175 Int) )(forall ((S1_V4_!7166 Int) )(forall ((S1_V4_!7172 Int) )(forall ((S1_V4_!7181 Int) )(forall ((S1_V4_!7188 Int) )(forall ((S1_V6_!7167 Int) )(forall ((S1_V6_!7173 Int) )(forall ((S1_V6_!7182 Int) )(forall ((S1_V6_!7189 Int) )(let ((?x2157 (ite MW_S1_V3 S1_V3_!7178 E2_!7175)))
 (let ((?x2012 (+ 1 ?x2157)))
 (let ((?x4165 (ite MW_S1_V3 S1_V3_!7185 ?x2012)))
 (let ((?x337 (ite MW_S1_V3 S1_V3_!7163 E2_!7161)))
 (let ((?x1188 (+ 1 ?x337)))
 (let ((?x5826 (ite MW_S1_V3 S1_V3_!7169 ?x1188)))
 (let (($x1569 (and (= (ite MW_S1_V1 S1_V1_!7168 E1_!7159) (ite MW_S1_V1 S1_V1_!7184 E1_!7183)) (= ?x5826 ?x4165) (= (ite MW_S1_V2 S1_V2_!7170 V2_0) (ite MW_S1_V2 S1_V2_!7186 V2_0)) (= (ite MW_S1_V5 S1_V5_!7171 V5_0) (ite MW_S1_V5 S1_V5_!7187 V5_0)) (= (ite MW_S1_V4 S1_V4_!7172 V4_0) (ite MW_S1_V4 S1_V4_!7188 V4_0)) (= (ite MW_S1_V6 S1_V6_!7173 V6_0) (ite MW_S1_V6 S1_V6_!7189 V6_0)))))
 (let (($x2303 (and (not (<= V4_0 E2_!7160)) (not (<= V2_0 E1_!7159)) (not (<= V4_0 E2_!7161)) (not (<= (ite MW_S1_V4 S1_V4_!7166 V4_0) ?x1188)) (>= ?x5826 (+ (- 1) (ite MW_S1_V4 S1_V4_!7172 V4_0))) (>= (ite MW_S1_V1 S1_V1_!7168 E1_!7159) (+ (- 1) (ite MW_S1_V2 S1_V2_!7170 V2_0))) (not (<= V2_0 E1_!7174)) (not (<= V4_0 E2_!7175)) (not (<= V2_0 E1_!7176)) (>= (ite MW_S1_V1 S1_V1_!7177 E1_!7176) (+ (- 1) (ite MW_S1_V2 S1_V2_!7179 V2_0))) (not (<= (ite MW_S1_V4 S1_V4_!7181 V4_0) ?x2012)) (not (<= (ite MW_S1_V2 S1_V2_!7179 V2_0) E1_!7183)) (>= (ite MW_S1_V1 S1_V1_!7184 E1_!7183) (+ (- 1) (ite MW_S1_V2 S1_V2_!7186 V2_0))) (>= ?x4165 (+ (- 1) (ite MW_S1_V4 S1_V4_!7188 V4_0))))))
 (let (($x1375 (= S1_V6_!7189 S1_V6_!7173)))
 (let (($x472 (and (or (not R_S1_V1) (= E1_!7183 (ite MW_S1_V1 S1_V1_!7162 E1_!7159))) (or (not R_S1_V3) (= ?x2157 ?x337)) (or (not R_S1_V2) (= (ite MW_S1_V2 S1_V2_!7179 V2_0) (ite MW_S1_V2 S1_V2_!7164 V2_0))) (or (not R_S1_V5) (= (ite MW_S1_V5 S1_V5_!7180 V5_0) (ite MW_S1_V5 S1_V5_!7165 V5_0))) (or (not R_S1_V4) (= (ite MW_S1_V4 S1_V4_!7181 V4_0) (ite MW_S1_V4 S1_V4_!7166 V4_0))) (or (not R_S1_V6) (= (ite MW_S1_V6 S1_V6_!7182 V6_0) (ite MW_S1_V6 S1_V6_!7167 V6_0))))))
 (let (($x256 (not $x472)))
 (let (($x4882 (= S1_V6_!7182 S1_V6_!7189)))
 (let ((?x3044 (ite MW_S1_V6 S1_V6_!7182 V6_0)))
 (let (($x1724 (= V6_0 ?x3044)))
 (let (($x3698 (not R_S1_V6)))
 (let (($x1750 (or $x3698 $x1724)))
 (let ((?x4794 (ite MW_S1_V4 S1_V4_!7181 V4_0)))
 (let (($x1848 (= V4_0 ?x4794)))
 (let (($x657 (not R_S1_V4)))
 (let (($x3281 (or $x657 $x1848)))
 (let (($x240 (not R_S1_V5)))
 (let (($x821 (or $x240 (= V5_0 (ite MW_S1_V5 S1_V5_!7180 V5_0)))))
 (let ((?x5336 (ite MW_S1_V2 S1_V2_!7179 V2_0)))
 (let (($x4752 (= V2_0 ?x5336)))
 (let (($x3524 (not R_S1_V2)))
 (let (($x2403 (or $x3524 $x4752)))
 (let (($x3497 (and (or (not R_S1_V1) (= E1_!7176 E1_!7183)) (or (not R_S1_V3) (= E2_!7175 ?x2012)) $x2403 $x821 $x3281 $x1750)))
 (let (($x2084 (not $x3497)))
 (let (($x2560 (= S1_V6_!7182 S1_V6_!7173)))
 (let (($x925 (or $x3698 (= V6_0 (ite MW_S1_V6 S1_V6_!7167 V6_0)))))
 (let (($x3060 (or $x657 (= V4_0 (ite MW_S1_V4 S1_V4_!7166 V4_0)))))
 (let (($x2023 (or $x240 (= V5_0 (ite MW_S1_V5 S1_V5_!7165 V5_0)))))
 (let (($x4279 (or $x3524 (= V2_0 (ite MW_S1_V2 S1_V2_!7164 V2_0)))))
 (let (($x650 (and (or (not R_S1_V1) (= E1_!7176 (ite MW_S1_V1 S1_V1_!7162 E1_!7159))) (or (not R_S1_V3) (= E2_!7175 ?x1188)) $x4279 $x2023 $x3060 $x925)))
 (let (($x5301 (not $x650)))
 (let (($x5358 (and (or (not R_S1_V1) (= E1_!7159 E1_!7183)) (or (not R_S1_V3) (= E2_!7161 ?x2012)) $x2403 $x821 $x3281 $x1750)))
 (let (($x3263 (not $x5358)))
 (let (($x3578 (and (or (not R_S1_V1) (= E1_!7159 E1_!7176)) (or (not R_S1_V3) (= E2_!7161 E2_!7175)))))
 (let (($x1613 (not $x3578)))
 (let (($x851 (and (or (not R_S1_V1) (= E1_!7159 (ite MW_S1_V1 S1_V1_!7162 E1_!7159))) (or (not R_S1_V3) (= E2_!7161 ?x1188)) $x4279 $x2023 $x3060 $x925)))
 (let (($x1666 (not $x851)))
 (let (($x5777 (= S1_V4_!7188 S1_V4_!7181)))
 (let (($x6053 (= ?x3044 V6_0)))
 (let (($x2113 (or $x3698 $x6053)))
 (let (($x5487 (= ?x4794 V4_0)))
 (let (($x3264 (or $x657 $x5487)))
 (let (($x2458 (or $x240 (= (ite MW_S1_V5 S1_V5_!7180 V5_0) V5_0))))
 (let (($x1717 (= ?x5336 V2_0)))
 (let (($x382 (or $x3524 $x1717)))
 (let (($x1418 (and (or (not R_S1_V1) (= E1_!7183 E1_!7176)) (or (not R_S1_V3) (= ?x2157 (+ (- 1) E2_!7175))) $x382 $x2458 $x3264 $x2113)))
 (let (($x3222 (not $x1418)))
 (let (($x3925 (and (or (not R_S1_V1) (= E1_!7183 E1_!7159)) (or (not R_S1_V3) (= ?x2157 (+ (- 1) E2_!7161))) $x382 $x2458 $x3264 $x2113)))
 (let (($x3105 (not $x3925)))
 (let (($x750 (and (or (not R_S1_V1) (= E1_!7176 E1_!7159)) (or (not R_S1_V3) (= E2_!7175 E2_!7161)))))
 (let (($x2871 (not $x750)))
 (let (($x147 (or $x3698 (= (ite MW_S1_V6 S1_V6_!7167 V6_0) V6_0))))
 (let (($x3748 (or $x657 (= (ite MW_S1_V4 S1_V4_!7166 V4_0) V4_0))))
 (let (($x3267 (or $x240 (= (ite MW_S1_V5 S1_V5_!7165 V5_0) V5_0))))
 (let (($x5672 (or $x3524 (= (ite MW_S1_V2 S1_V2_!7164 V2_0) V2_0))))
 (let (($x2746 (and (or (not R_S1_V1) (= (ite MW_S1_V1 S1_V1_!7162 E1_!7159) E1_!7159)) (or (not R_S1_V3) (= ?x337 (+ (- 1) E2_!7161))) $x5672 $x3267 $x3748 $x147)))
 (let (($x2688 (not $x2746)))
 (let (($x4656 (= S1_V5_!7171 S1_V5_!7180)))
 (let (($x1895 (and (or (not R_S1_V1) (= (ite MW_S1_V1 S1_V1_!7162 E1_!7159) E1_!7176)) (or (not R_S1_V3) (= ?x337 (+ (- 1) E2_!7175))) $x5672 $x3267 $x3748 $x147)))
 (let (($x1403 (not $x1895)))
 (let (($x349 (= E1_!7183 E1_!7176)))
 (let (($x1100 (and (or (not R_E1_V2) $x1717) (or (not R_E1_V4) $x5487) (or (not R_E1_V6) $x6053))))
 (let (($x4673 (not $x1100)))
 (let (($x2384 (= E1_!7174 E1_!7176)))
 (let (($x5088 (= E1_!7159 E1_!7183)))
 (let (($x1849 (and (or (not R_E1_V2) $x4752) (or (not R_E1_V4) $x1848) (or (not R_E1_V6) $x1724))))
 (let (($x6015 (= E1_!7159 E1_!7176)))
 (let (($x2895 (and (or (not R_S1_V1) (= (ite MW_S1_V1 S1_V1_!7162 E1_!7159) E1_!7183)) (or (not R_S1_V3) (= ?x337 ?x2157)) (or $x3524 (= (ite MW_S1_V2 S1_V2_!7164 V2_0) ?x5336)) (or $x240 (= (ite MW_S1_V5 S1_V5_!7165 V5_0) (ite MW_S1_V5 S1_V5_!7180 V5_0))) (or $x657 (= (ite MW_S1_V4 S1_V4_!7166 V4_0) ?x4794)) (or $x3698 (= (ite MW_S1_V6 S1_V6_!7167 V6_0) ?x3044)))))
 (let (($x2243 (and (or $x1666 (= S1_V1_!7162 S1_V1_!7168)) (or $x3263 (= S1_V1_!7162 S1_V1_!7184)) (or $x2871 (= S1_V1_!7177 S1_V1_!7162)) (or $x5301 (= S1_V1_!7177 S1_V1_!7168)) (or $x2084 (= S1_V1_!7177 S1_V1_!7184)) (or $x256 (= S1_V1_!7184 S1_V1_!7168)) (or $x1666 (= S1_V3_!7163 S1_V3_!7169)) (or $x1613 (= S1_V3_!7163 S1_V3_!7178)) (or $x1403 (= S1_V3_!7169 S1_V3_!7178)) (or $x3105 (= S1_V3_!7185 S1_V3_!7163)) (or $x256 (= S1_V3_!7185 S1_V3_!7169)) (or $x3222 (= S1_V3_!7185 S1_V3_!7178)) (or $x1666 (= S1_V2_!7164 S1_V2_!7170)) (or $x1613 (= S1_V2_!7164 S1_V2_!7179)) (or $x3263 (= S1_V2_!7164 S1_V2_!7186)) (or $x1403 (= S1_V2_!7170 S1_V2_!7179)) (or (not $x2895) (= S1_V2_!7170 S1_V2_!7186)) (or $x3222 (= S1_V2_!7186 S1_V2_!7179)) (= E1_!7159 E1_!7174) $x6015 (or (not $x1849) $x5088) $x2384 (or $x4673 (= E1_!7183 E1_!7174)) (or $x4673 $x349) (or $x1613 (= S1_V5_!7165 S1_V5_!7180)) (or $x2688 (= S1_V5_!7171 S1_V5_!7165)) (or $x1403 $x4656) (or $x3105 (= S1_V5_!7187 S1_V5_!7165)) (or $x256 (= S1_V5_!7187 S1_V5_!7171)) (or $x3222 (= S1_V5_!7187 S1_V5_!7180)) (= E2_!7160 E2_!7161) (or (not (or (not R_E2_V1) (= E1_!7174 E1_!7159))) (= E2_!7175 E2_!7160)) (or (not (or (not R_E2_V1) (= E1_!7174 E1_!7159))) (= E2_!7175 E2_!7161)) (or $x2688 (= S1_V4_!7172 S1_V4_!7166)) (or $x2871 (= S1_V4_!7181 S1_V4_!7166)) (or $x5301 (= S1_V4_!7181 S1_V4_!7172)) (or $x3105 (= S1_V4_!7188 S1_V4_!7166)) (or $x256 (= S1_V4_!7188 S1_V4_!7172)) (or $x3222 $x5777) (or $x1666 (= S1_V6_!7167 S1_V6_!7173)) (or $x1613 (= S1_V6_!7167 S1_V6_!7182)) (or $x3263 (= S1_V6_!7167 S1_V6_!7189)) (or $x5301 $x2560) (or $x2084 $x4882) (or $x256 $x1375) (or (not MW_S1_V1) W_S1_V1) (or (not MW_S1_V3) W_S1_V3) (not MW_S1_V2) (or (not MW_S1_V4) W_S1_V4) (or (not MW_S1_V6) W_S1_V6))))
 (or (not $x2243) (not $x2303) $x1569)))))))))))))))))))))))))))))))))))))))))))))))))))))))))))))))))))))))))))
 )
 )
 )
 )
 )
 )
 )
 )
 )
 )
 )
 )
 )
 )
 )
 )
 )
 )
 )
 )
 )
 )
 )
 )
 )
 )
 )
 )
 )
 )
 )
 )
 )
 )
 )
 )
 )
 )
 )
 )
 ))
 (let (($x5721 (not R_E1_V5)))
 (let (($x4555 (and W_S1_V6 R_S1_V6)))
 (let (($x2903 (and W_S1_V4 R_S1_V4)))
 (let (($x498 (and W_S1_V3 R_S1_V3)))
 (let (($x5864 (and W_S1_V1 R_S1_V1)))
 (let (($x2346 (= DISJ_W_S1_R_S1 (not (or $x5864 $x498 R_S1_V5 $x2903 $x4555)))))
 (let (($x5775 (and W_S1_V6 R_E2_V6)))
 (let (($x3106 (and W_S1_V4 R_E2_V4)))
 (let (($x1752 (and W_S1_V1 R_E2_V1)))
 (let (($x3669 (= DISJ_W_S1_R_E2 (not (or $x1752 R_E2_V5 $x3106 $x5775)))))
 (let (($x5117 (or DISJ_W_S1_R_S1 (not W_S1_V1) (and (not W_S1_V3) (not W_S1_V4)) (and (not R_S1_V1) (not R_S1_V3) (not W_S1_V4)))))
 (let (($x2716 (not W_S1_V2)))
 (let (($x2861 (not R_E1_V3)))
 (let (($x4779 (not R_E1_V1)))
 (let (($x3451 (not R_E2_V3)))
 (and DISJ_W_S1_R_E1 $x3451 $x4779 $x2861 $x2716 $x5117 W_S1_V5 $x3669 $x2346 $x5721 $x5163 $x1618 $x3377))))))))))))))))))))
(check-sat)
